NAME 
ROWS
 N  OBJ
 L  R0      
 L  R1      
 E  R2      
COLUMNS
    MARKER    'MARKER'                 'INTORG'
    I0(3)     OBJ       -230
    I0(3)     R0        -860
    I0(3)     R1        -171
    I0(3)     R2        36
    I1(3)     OBJ       -870
    I1(3)     R0        -900
    I1(3)     R1        -231
    I1(3)     R2        273
    I2(3)     OBJ       -555
    I2(3)     R0        -169
    I2(3)     R1        -790
    I2(3)     R2        877
    I3(3)     OBJ       -578
    I3(3)     R0        -415
    I3(3)     R1        -339
    I3(3)     R2        826
    I4(3)     OBJ       -995
    I4(3)     R0        -477
    I4(3)     R1        -646
    I4(3)     R2        611
    I5(3)     OBJ       -596
    I5(3)     R0        -163
    I5(3)     R1        -267
    I5(3)     R2        522
    I6(3)     OBJ       -800
    I6(3)     R0        -10
    I6(3)     R1        -501
    I6(3)     R2        92
    I7(3)     OBJ       -819
    I7(3)     R0        -277
    I7(3)     R1        -656
    I7(3)     R2        111
    I8(3)     OBJ       -630
    I8(3)     R0        -981
    I8(3)     R1        -544
    I8(3)     R2        177
    I9(3)     OBJ       -504
    I9(3)     R0        -640
    I9(3)     R1        -482
    I9(3)     R2        636
    I10(3)    OBJ       -747
    I10(3)    R0        -781
    I10(3)    R1        -295
    I10(3)    R2        592
    I11(3)    OBJ       -816
    I11(3)    R0        -727
    I11(3)    R1        -324
    I11(3)    R2        472
    I12(3)    OBJ       -996
    I12(3)    R0        -456
    I12(3)    R1        -209
    I12(3)    R2        960
    I13(3)    OBJ       -509
    I13(3)    R0        -777
    I13(3)    R1        -750
    I13(3)    R2        800
    I14(3)    OBJ       -700
    I14(3)    R0        -235
    I14(3)    R1        -101
    I14(3)    R2        222
    I15(3)    OBJ       -238
    I15(3)    R0        -155
    I15(3)    R1        -444
    I15(3)    R2        60
    I16(3)    OBJ       -395
    I16(3)    R0        -14
    I16(3)    R1        -905
    I16(3)    R2        243
    I17(3)    OBJ       -870
    I17(3)    R0        -630
    I17(3)    R1        -114
    I17(3)    R2        126
    I18(3)    OBJ       -236
    I18(3)    R0        -25
    I18(3)    R1        -73
    I18(3)    R2        173
    I19(3)    OBJ       -292
    I19(3)    R0        -250
    I19(3)    R1        -929
    I19(3)    R2        316
    I20(3)    OBJ       -602
    I20(3)    R0        -922
    I20(3)    R1        -363
    I20(3)    R2        54
    I21(3)    OBJ       -556
    I21(3)    R0        -626
    I21(3)    R1        -995
    I21(3)    R2        536
    I22(3)    OBJ       -10
    I22(3)    R0        -805
    I22(3)    R1        -554
    I22(3)    R2        310
    I23(3)    OBJ       -52
    I23(3)    R0        -931
    I23(3)    R1        -167
    I23(3)    R2        608
    I24(3)    OBJ       -303
    I24(3)    R0        -677
    I24(3)    R1        -925
    I24(3)    R2        703
    I25(3)    OBJ       -290
    I25(3)    R0        -108
    I25(3)    R1        -231
    I25(3)    R2        235
    I26(3)    OBJ       -195
    I26(3)    R0        -221
    I26(3)    R1        -275
    I26(3)    R2        839
    I27(3)    OBJ       -264
    I27(3)    R0        -872
    I27(3)    R1        -146
    I27(3)    R2        977
    I28(3)    OBJ       -670
    I28(3)    R0        -372
    I28(3)    R1        -103
    I28(3)    R2        381
    I29(3)    OBJ       -299
    I29(3)    R0        -891
    I29(3)    R1        -646
    I29(3)    R2        941
    I30(1)    R2        1
    MARKER    'MARKER'                 'INTEND'
RHS
    RHS1      R0        -9609
    RHS1      R1        -8584
    RHS1      R2        6854
BOUNDS
 UP BND1      I0(3)     1
 UP BND1      I1(3)     1
 UP BND1      I2(3)     1
 UP BND1      I3(3)     1
 UP BND1      I4(3)     1
 UP BND1      I5(3)     1
 UP BND1      I6(3)     1
 UP BND1      I7(3)     1
 UP BND1      I8(3)     1
 UP BND1      I9(3)     1
 UP BND1      I10(3)    1
 UP BND1      I11(3)    1
 UP BND1      I12(3)    1
 UP BND1      I13(3)    1
 UP BND1      I14(3)    1
 UP BND1      I15(3)    1
 UP BND1      I16(3)    1
 UP BND1      I17(3)    1
 UP BND1      I18(3)    1
 UP BND1      I19(3)    1
 UP BND1      I20(3)    1
 UP BND1      I21(3)    1
 UP BND1      I22(3)    1
 UP BND1      I23(3)    1
 UP BND1      I24(3)    1
 UP BND1      I25(3)    1
 UP BND1      I26(3)    1
 UP BND1      I27(3)    1
 UP BND1      I28(3)    1
 UP BND1      I29(3)    1
 LI BND1      I30(1)    0
ENDATA
